letting n =  10
letting blocks =  [[1, 5], [2, 5], [2, 6], [2, 7], [3, 7], [4, 2], [6, 1], [6, 2], [6, 5], [6, 8], [7, 3], [7, 8], [8, 2], [9, 2], [9, 3], [10, 6], [10, 7], [10, 8], [10, 9], [10, 10]]
